p tw 111 675
1 2
1 96
1 110
2 7
2 62
3 4
3 36
3 86
4 29
4 109
5 6
5 18
5 91
6 7
6 22
6 62
7 62
8 9
8 11
8 12
8 17
8 18
8 19
8 21
8 23
8 24
9 15
9 17
9 18
9 23
9 25
9 26
9 27
10 11
10 12
10 15
10 18
10 22
10 26
10 28
11 18
11 19
11 21
11 22
11 24
11 27
12 17
12 18
12 19
12 24
12 25
12 26
12 28
13 15
13 16
13 18
13 20
13 24
13 26
13 28
14 18
14 22
14 27
15 16
15 18
15 20
15 25
15 26
16 17
16 18
16 21
16 22
16 23
16 25
16 27
16 28
16 103
17 18
17 20
17 22
17 25
17 27
17 28
17 91
18 19
18 20
18 21
18 22
18 23
18 24
18 25
18 26
18 27
18 28
18 30
18 32
18 74
18 91
18 111
19 20
19 24
19 26
19 27
20 25
20 27
21 23
21 25
21 27
23 26
24 25
24 26
24 27
24 28
25 26
26 28
26 83
29 67
29 109
30 56
30 95
30 111
31 43
31 62
31 109
32 33
32 34
32 35
32 36
32 37
32 39
32 40
32 41
32 43
32 44
32 45
32 46
32 47
32 48
32 49
32 50
32 51
32 52
32 53
32 54
32 55
32 74
33 42
33 44
33 46
33 50
33 52
33 54
33 55
34 35
34 39
34 40
34 42
34 44
34 45
34 51
34 52
35 37
35 39
35 40
35 47
35 49
35 52
35 53
36 41
36 43
36 45
36 46
36 47
36 48
36 49
36 50
36 51
36 55
37 38
37 42
37 47
37 48
37 54
37 55
37 111
38 87
38 111
39 45
39 47
39 52
39 54
40 42
40 43
40 44
40 45
40 48
40 51
40 54
41 43
41 45
41 46
41 49
41 53
42 43
42 49
42 51
42 54
42 88
43 44
43 46
43 48
43 52
43 54
43 55
44 45
44 46
44 47
44 48
44 49
44 51
45 46
45 47
45 51
45 53
45 54
45 55
46 50
46 51
46 55
47 49
47 99
48 50
48 52
48 53
49 51
50 51
50 53
51 55
53 55
54 55
56 57
56 58
56 60
56 61
56 62
56 65
56 67
56 68
56 70
56 77
56 82
56 83
56 94
56 98
56 101
56 102
56 109
57 62
57 65
57 68
57 69
57 73
57 79
57 83
57 96
58 60
58 68
58 70
58 71
58 73
58 80
58 82
58 84
58 88
58 91
58 97
58 101
58 103
58 105
58 106
59 68
59 69
59 73
59 77
59 79
59 80
59 81
59 84
59 86
59 89
59 90
59 91
59 93
59 95
59 96
59 99
59 106
59 107
60 62
60 66
60 67
60 76
60 78
60 85
60 86
60 87
60 96
60 101
60 103
60 105
60 106
60 107
61 70
61 77
61 91
61 102
61 109
62 63
62 70
62 72
62 74
62 75
62 76
62 84
62 85
62 86
62 87
62 88
62 91
62 93
62 95
62 96
62 98
62 99
62 102
62 105
62 106
62 108
62 109
63 75
63 76
63 81
63 82
63 86
63 87
63 89
63 91
63 92
63 93
63 102
63 104
63 105
64 77
64 81
64 85
64 88
64 90
64 91
64 93
64 102
64 104
64 105
64 107
64 108
65 67
65 70
65 71
65 72
65 73
65 76
65 78
65 84
65 86
65 88
65 96
65 98
65 100
65 103
65 104
65 105
66 67
66 74
66 76
66 77
66 82
66 86
66 96
66 97
66 99
66 107
67 68
67 69
67 70
67 74
67 76
67 79
67 80
67 85
67 87
67 89
67 93
67 94
67 96
67 98
67 99
67 103
67 108
67 109
68 69
68 71
68 72
68 73
68 74
68 80
68 81
68 83
68 85
68 87
68 90
68 96
68 98
68 99
68 100
68 101
68 103
68 105
68 106
69 70
69 72
69 79
69 83
69 86
69 102
69 103
69 110
70 73
70 76
70 78
70 81
70 83
70 85
70 95
70 105
70 107
71 73
71 76
71 79
71 80
71 81
71 85
71 90
71 91
71 92
71 93
71 94
71 95
71 96
71 97
71 98
71 103
71 106
72 77
72 81
72 82
72 86
72 88
72 92
72 94
72 96
72 100
72 102
72 108
73 78
73 79
73 80
73 83
73 85
73 92
73 100
73 103
73 107
74 76
74 78
74 86
74 87
74 88
74 93
74 96
74 109
75 77
75 82
75 83
75 88
75 90
75 92
75 93
75 94
75 95
75 99
75 106
75 107
75 108
76 81
76 82
76 86
76 87
76 90
76 92
76 96
76 101
76 102
76 103
76 106
76 108
77 78
77 79
77 82
77 86
77 87
77 92
77 94
77 101
77 102
77 105
78 81
78 82
78 84
78 85
78 86
78 88
78 92
78 98
78 102
78 104
78 105
78 107
78 108
78 109
79 82
79 87
79 91
79 92
79 93
79 95
79 100
79 104
79 105
79 106
79 107
80 90
80 94
80 104
81 82
81 86
81 88
81 89
81 94
81 95
81 96
81 97
81 103
81 105
81 107
82 86
82 87
82 90
82 92
82 93
82 98
82 105
82 107
83 85
83 90
83 96
83 98
83 106
83 107
83 109
84 86
84 91
84 97
84 99
84 109
85 96
85 101
85 105
85 106
85 107
85 108
86 87
86 91
86 92
86 97
86 103
86 105
86 108
87 88
87 95
87 98
87 104
87 106
87 111
88 103
88 104
88 107
89 90
89 102
89 103
89 104
89 107
90 91
90 94
90 96
90 98
90 104
90 106
90 107
91 95
91 98
91 102
91 104
91 109
92 94
92 98
92 100
92 101
92 103
92 106
93 96
93 98
93 99
93 102
93 104
93 109
94 97
94 101
94 104
94 106
94 108
95 102
95 106
96 99
96 100
96 105
96 107
96 109
96 110
97 101
97 103
97 106
98 101
98 104
98 105
98 106
98 108
99 100
99 103
99 105
99 106
99 108
99 109
100 104
100 106
101 103
101 106
102 104
103 105
104 108
105 106
105 107
105 108
106 107
106 108
107 108
108 109
